feasible solution found by trivial heuristic after 0.0 seconds, objective value 0.000000e+00
presolving:
(round 1, fast)       265 del vars, 7547 del conss, 0 add conss, 0 chg bounds, 0 chg sides, 0 chg coeffs, 0 upgd conss, 0 impls, 7027 clqs
   (0.0s) running MILP presolver
   (0.1s) MILP presolver (2 rounds): 0 aggregations, 0 fixings, 0 bound changes
(round 2, exhaustive) 265 del vars, 7562 del conss, 0 add conss, 0 chg bounds, 0 chg sides, 0 chg coeffs, 0 upgd conss, 0 impls, 7027 clqs
(round 3, exhaustive) 265 del vars, 7562 del conss, 0 add conss, 0 chg bounds, 0 chg sides, 0 chg coeffs, 7027 upgd conss, 0 impls, 7027 clqs
   (0.2s) probing: 51/297 (17.2%) - 0 fixings, 0 aggregations, 0 implications, 0 bound changes
   (0.2s) probing aborted: 50/50 successive totally useless probings
   (0.2s) symmetry computation started: requiring (bin +, int -, cont +), (fixed: bin -, int +, cont -)
   (0.2s) symmetry computation finished: 2 generators found (max: 1500, log10 of symmetry group size: 0.6)
presolving (4 rounds: 4 fast, 3 medium, 3 exhaustive):
 265 deleted vars, 7562 deleted constraints, 2 added constraints, 0 tightened bounds, 0 added holes, 0 changed sides, 0 changed coefficients
 0 implications, 7027 cliques
presolved problem has 297 variables (297 bin, 0 int, 0 impl, 0 cont) and 7029 constraints
   7027 constraints of type <setppc>
      2 constraints of type <orbitope>
transformed objective value is always integral (scale: 1)
Presolving Time: 0.18
transformed 1/2 original solutions to the transformed problem space

 time | node  | left  |LP iter|LP it/n|mem/heur|mdpt |vars |cons |rows |cuts |sepa|confs|strbr|  dualbound   | primalbound  |  gap   | compl. 
p 0.2s|     1 |     0 |     0 |     - |  clique|   0 | 297 |7029 |7027 |   0 |  0 |   0 |   0 | 2.410000e+02 | 1.300000e+01 |1753.85%| unknown
p 0.2s|     1 |     0 |     1 |     - | vbounds|   0 | 297 |7029 |7027 |   0 |  0 |   0 |   0 | 2.410000e+02 | 1.500000e+01 |1506.67%| unknown
  0.3s|     1 |     0 |   425 |     - |    45M |   0 | 297 |7029 |7027 |   0 |  0 |   0 |   0 | 1.205000e+02 | 1.500000e+01 | 703.33%| unknown
  0.4s|     1 |     0 |   458 |     - |    47M |   0 | 297 |7030 |7028 |   1 |  1 |   1 |   0 | 1.175000e+02 | 1.500000e+01 | 683.33%| unknown
  0.6s|     1 |     0 |   479 |     - |    48M |   0 | 297 |7030 |7029 |   2 |  2 |   1 |   0 | 1.160000e+02 | 1.500000e+01 | 673.33%| unknown
  0.7s|     1 |     0 |   538 |     - |    49M |   0 | 297 |7030 |7043 |  16 |  3 |   1 |   0 | 1.090000e+02 | 1.500000e+01 | 626.67%| unknown
  0.9s|     1 |     0 |   569 |     - |    50M |   0 | 297 |7030 |7050 |  23 |  4 |   1 |   0 | 1.070000e+02 | 1.500000e+01 | 613.33%| unknown
  1.1s|     1 |     0 |   627 |     - |    51M |   0 | 297 |7031 |7060 |  33 |  5 |   2 |   0 | 1.045000e+02 | 1.500000e+01 | 596.67%| unknown
  1.2s|     1 |     0 |   694 |     - |    51M |   0 | 297 |7031 |7067 |  40 |  6 |   2 |   0 | 1.020000e+02 | 1.500000e+01 | 580.00%| unknown
  1.4s|     1 |     0 |   733 |     - |    52M |   0 | 297 |7031 |7071 |  44 |  7 |   2 |   0 | 1.010000e+02 | 1.500000e+01 | 573.33%| unknown
  1.6s|     1 |     0 |   785 |     - |    53M |   0 | 297 |7032 |7083 |  56 |  8 |   3 |   0 | 9.750000e+01 | 1.500000e+01 | 550.00%| unknown
  1.9s|     1 |     0 |   822 |     - |    54M |   0 | 297 |7033 |7091 |  64 |  9 |   4 |   0 | 9.550000e+01 | 1.500000e+01 | 536.67%| unknown
  2.1s|     1 |     0 |   921 |     - |    54M |   0 | 297 |7033 |7098 |  71 | 10 |   4 |   0 | 9.425000e+01 | 1.500000e+01 | 528.33%| unknown
  2.2s|     1 |     0 |   968 |     - |    55M |   0 | 297 |7034 |7105 |  78 | 11 |   5 |   0 | 9.420000e+01 | 1.500000e+01 | 528.00%| unknown
  2.2s|     1 |     0 |   992 |     - |    56M |   0 | 297 |7034 |7109 |  82 | 12 |   5 |   0 | 9.370000e+01 | 1.500000e+01 | 524.67%| unknown
 time | node  | left  |LP iter|LP it/n|mem/heur|mdpt |vars |cons |rows |cuts |sepa|confs|strbr|  dualbound   | primalbound  |  gap   | compl. 
  2.3s|     1 |     0 |  1021 |     - |    57M |   0 | 297 |7034 |7111 |  84 | 13 |   5 |   0 | 9.350000e+01 | 1.500000e+01 | 523.33%| unknown
  2.4s|     1 |     0 |  1108 |     - |    57M |   0 | 297 |7035 |7116 |  89 | 14 |   6 |   0 | 9.200000e+01 | 1.500000e+01 | 513.33%| unknown
  2.5s|     1 |     0 |  1186 |     - |    58M |   0 | 297 |7035 |7120 |  93 | 15 |   6 |   0 | 9.150000e+01 | 1.500000e+01 | 510.00%| unknown
  2.5s|     1 |     0 |  1262 |     - |    59M |   0 | 297 |7036 |7122 | 100 | 16 |   7 |   0 | 9.066667e+01 | 1.500000e+01 | 504.44%| unknown
  2.6s|     1 |     0 |  1299 |     - |    60M |   0 | 297 |7036 |7129 | 107 | 17 |   7 |   0 | 9.000000e+01 | 1.500000e+01 | 500.00%| unknown
  2.7s|     1 |     0 |  1360 |     - |    60M |   0 | 297 |7036 |7135 | 113 | 18 |   7 |   0 | 8.980000e+01 | 1.500000e+01 | 498.67%| unknown
  2.7s|     1 |     0 |  1472 |     - |    61M |   0 | 297 |7036 |7142 | 120 | 19 |   7 |   0 | 8.950000e+01 | 1.500000e+01 | 496.67%| unknown
  2.7s|     1 |     0 |  1603 |     - |    62M |   0 | 297 |7036 |7147 | 125 | 20 |   7 |   0 | 8.876786e+01 | 1.500000e+01 | 491.79%| unknown
  2.8s|     1 |     0 |  1654 |     - |    62M |   0 | 297 |7036 |7149 | 127 | 22 |   7 |   0 | 8.839744e+01 | 1.500000e+01 | 489.32%| unknown
  2.8s|     1 |     0 |  1668 |     - |    62M |   0 | 297 |7036 |7143 | 128 | 23 |   7 |   0 | 8.833333e+01 | 1.500000e+01 | 488.89%| unknown
  2.8s|     1 |     0 |  1670 |     - |    62M |   0 | 297 |7037 |7144 | 129 | 24 |   8 |   0 | 8.833333e+01 | 1.500000e+01 | 488.89%| unknown
  2.8s|     1 |     0 |  1691 |     - |    62M |   0 | 297 |7037 |7146 | 131 | 25 |   8 |   0 | 8.829167e+01 | 1.500000e+01 | 488.61%| unknown
  2.8s|     1 |     0 |  1697 |     - |    62M |   0 | 297 |7037 |7147 | 132 | 26 |   8 |   0 | 8.829167e+01 | 1.500000e+01 | 488.61%| unknown
  2.8s|     1 |     0 |  1702 |     - |    62M |   0 | 297 |7038 |7148 | 133 | 27 |   9 |   0 | 8.826190e+01 | 1.500000e+01 | 488.41%| unknown
  2.8s|     1 |     0 |  1707 |     - |    62M |   0 | 297 |7039 |7150 | 135 | 29 |  10 |   0 | 8.825000e+01 | 1.500000e+01 | 488.33%| unknown
 time | node  | left  |LP iter|LP it/n|mem/heur|mdpt |vars |cons |rows |cuts |sepa|confs|strbr|  dualbound   | primalbound  |  gap   | compl. 
  3.3s|     1 |     0 |  2621 |     - |    63M |   0 | 297 |6707 |7150 | 135 | 31 |  10 |  15 | 8.675000e+01 | 1.500000e+01 | 478.33%| unknown
  3.3s|     1 |     0 |  2662 |     - |    63M |   0 | 297 |6708 |7135 | 136 | 32 |  11 |  15 | 8.659524e+01 | 1.500000e+01 | 477.30%| unknown
  3.4s|     1 |     0 |  2733 |     - |    63M |   0 | 297 |6387 |7135 | 136 | 33 |  11 |  22 | 8.475000e+01 | 1.500000e+01 | 465.00%| unknown
  3.4s|     1 |     0 |  2737 |     - |    63M |   0 | 297 |6387 |7137 | 138 | 34 |  11 |  22 | 8.475000e+01 | 1.500000e+01 | 465.00%| unknown
  3.4s|     1 |     0 |  2740 |     - |    63M |   0 | 297 |6387 |7138 | 139 | 35 |  11 |  22 | 8.475000e+01 | 1.500000e+01 | 465.00%| unknown
  3.6s|     1 |     0 |  2856 |     - |    63M |   0 | 297 |6084 |7126 | 139 | 35 |  11 |  32 | 8.330000e+01 | 1.500000e+01 | 455.33%| unknown
  3.6s|     1 |     0 |  2909 |     - |    63M |   0 | 297 |6084 |7130 | 143 | 36 |  11 |  32 | 8.300000e+01 | 1.500000e+01 | 453.33%| unknown
  4.2s|     1 |     0 |  3045 |     - |    63M |   0 | 297 |5807 |7130 | 143 | 37 |  12 |  63 | 8.175000e+01 | 1.500000e+01 | 445.00%| unknown
  4.2s|     1 |     0 |  3080 |     - |    63M |   0 | 297 |5808 |7133 | 146 | 38 |  13 |  63 | 8.173077e+01 | 1.500000e+01 | 444.87%| unknown
  4.2s|     1 |     0 |  3083 |     - |    63M |   0 | 297 |5808 |7135 | 148 | 39 |  13 |  63 | 8.172727e+01 | 1.500000e+01 | 444.85%| unknown
  4.9s|     1 |     0 |  3099 |     - |    63M |   0 | 297 |5739 |7135 | 148 | 39 |  14 | 101 | 7.922727e+01 | 1.500000e+01 | 428.18%| unknown
  4.9s|     1 |     0 |  3102 |     - |    64M |   0 | 297 |5739 |7137 | 150 | 40 |  14 | 101 | 7.922727e+01 | 1.500000e+01 | 428.18%| unknown
  5.2s|     1 |     2 |  3109 |     - |    64M |   0 | 297 |5740 |7137 | 150 | 41 |  15 | 117 | 7.922727e+01 | 1.500000e+01 | 428.18%| unknown
(run 1, node 1) restarting after 20 global fixings of integer variables

(restart) converted 110 cuts from the global cut pool into linear constraints

presolving:
(round 1, fast)       20 del vars, 1 del conss, 0 add conss, 0 chg bounds, 0 chg sides, 0 chg coeffs, 0 upgd conss, 0 impls, 5830 clqs
(round 2, exhaustive) 20 del vars, 6 del conss, 0 add conss, 0 chg bounds, 4 chg sides, 0 chg coeffs, 0 upgd conss, 0 impls, 5830 clqs
(round 3, exhaustive) 20 del vars, 6 del conss, 0 add conss, 0 chg bounds, 4 chg sides, 0 chg coeffs, 105 upgd conss, 0 impls, 5830 clqs
(round 4, fast)       20 del vars, 12 del conss, 0 add conss, 0 chg bounds, 4 chg sides, 0 chg coeffs, 105 upgd conss, 0 impls, 5830 clqs
(round 5, medium)     20 del vars, 18 del conss, 5 add conss, 0 chg bounds, 9 chg sides, 11 chg coeffs, 105 upgd conss, 0 impls, 5831 clqs
presolving (6 rounds: 6 fast, 4 medium, 3 exhaustive):
 20 deleted vars, 18 deleted constraints, 5 added constraints, 0 tightened bounds, 0 added holes, 9 changed sides, 18 changed coefficients
 0 implications, 5831 cliques
presolved problem has 277 variables (277 bin, 0 int, 0 impl, 0 cont) and 5837 constraints
      7 constraints of type <knapsack>
   5829 constraints of type <setppc>
      1 constraints of type <orbitope>
transformed objective value is always integral (scale: 1)
Presolving Time: 0.21
transformed 22/29 original solutions to the transformed problem space

 time | node  | left  |LP iter|LP it/n|mem/heur|mdpt |vars |cons |rows |cuts |sepa|confs|strbr|  dualbound   | primalbound  |  gap   | compl. 
  5.2s|     1 |     0 |  3696 |     - |    63M |   0 | 277 |5837 |5822 |   0 |  0 |  15 | 117 | 7.922727e+01 | 1.500000e+01 | 428.18%| unknown
  5.4s|     1 |     0 |  3837 |     - |    65M |   0 | 277 |5838 |5831 |   9 |  1 |  16 | 117 | 7.864286e+01 | 1.500000e+01 | 424.29%| unknown
  5.5s|     1 |     0 |  3988 |     - |    67M |   0 | 277 |5838 |5840 |  18 |  2 |  16 | 117 | 7.700000e+01 | 1.500000e+01 | 413.33%| unknown
  5.7s|     1 |     0 |  4202 |     - |    68M |   0 | 277 |5838 |5852 |  30 |  3 |  16 | 117 | 7.537500e+01 | 1.500000e+01 | 402.50%| unknown
  5.8s|     1 |     0 |  4409 |     - |    69M |   0 | 277 |5838 |5865 |  43 |  4 |  16 | 117 | 7.412500e+01 | 1.500000e+01 | 394.17%| unknown
  6.1s|     1 |     0 |  4528 |     - |    69M |   0 | 277 |5838 |5873 |  51 |  5 |  16 | 117 | 7.341667e+01 | 1.500000e+01 | 389.44%| unknown
  6.2s|     1 |     0 |  4715 |     - |    71M |   0 | 277 |5838 |5887 |  65 |  6 |  16 | 117 | 7.179429e+01 | 1.500000e+01 | 378.63%| unknown
  6.3s|     1 |     0 |  4955 |     - |    73M |   0 | 277 |5838 |5894 |  72 |  7 |  16 | 117 | 7.067776e+01 | 1.500000e+01 | 371.19%| unknown
  6.4s|     1 |     0 |  5100 |     - |    74M |   0 | 277 |5838 |5899 |  77 |  8 |  16 | 117 | 7.027242e+01 | 1.500000e+01 | 368.48%| unknown
  6.5s|     1 |     0 |  5267 |     - |    77M |   0 | 277 |5838 |5906 |  84 |  9 |  16 | 117 | 6.963668e+01 | 1.500000e+01 | 364.24%| unknown
  6.6s|     1 |     0 |  5436 |     - |    79M |   0 | 277 |5839 |5910 |  88 | 10 |  17 | 117 | 6.911029e+01 | 1.500000e+01 | 360.74%| unknown
  6.6s|     1 |     0 |  5584 |     - |    80M |   0 | 277 |5839 |5920 |  98 | 11 |  17 | 117 | 6.857090e+01 | 1.500000e+01 | 357.14%| unknown
  6.6s|     1 |     0 |  5718 |     - |    80M |   0 | 277 |5839 |5927 | 105 | 12 |  17 | 117 | 6.824960e+01 | 1.500000e+01 | 355.00%| unknown
  6.7s|     1 |     0 |  5880 |     - |    81M |   0 | 277 |5839 |5934 | 112 | 13 |  17 | 117 | 6.744280e+01 | 1.500000e+01 | 349.62%| unknown
  6.7s|     1 |     0 |  6062 |     - |    82M |   0 | 277 |5839 |5908 | 117 | 14 |  17 | 117 | 6.704350e+01 | 1.500000e+01 | 346.96%| unknown
 time | node  | left  |LP iter|LP it/n|mem/heur|mdpt |vars |cons |rows |cuts |sepa|confs|strbr|  dualbound   | primalbound  |  gap   | compl. 
  6.7s|     1 |     0 |  6153 |     - |    82M |   0 | 277 |5839 |5912 | 121 | 15 |  17 | 117 | 6.678881e+01 | 1.500000e+01 | 345.26%| unknown
  6.7s|     1 |     0 |  6274 |     - |    83M |   0 | 277 |5839 |5919 | 128 | 16 |  17 | 117 | 6.650525e+01 | 1.500000e+01 | 343.37%| unknown
  6.8s|     1 |     0 |  6419 |     - |    83M |   0 | 277 |5840 |5924 | 133 | 17 |  18 | 117 | 6.625994e+01 | 1.500000e+01 | 341.73%| unknown
  6.8s|     1 |     0 |  6516 |     - |    84M |   0 | 277 |5840 |5929 | 138 | 18 |  18 | 117 | 6.581343e+01 | 1.500000e+01 | 338.76%| unknown
  6.8s|     1 |     0 |  6606 |     - |    85M |   0 | 277 |5840 |5935 | 144 | 19 |  18 | 117 | 6.557371e+01 | 1.500000e+01 | 337.16%| unknown
  6.8s|     1 |     0 |  6734 |     - |    85M |   0 | 277 |5840 |5920 | 149 | 20 |  18 | 117 | 6.530542e+01 | 1.500000e+01 | 335.37%| unknown
  6.8s|     1 |     0 |  6774 |     - |    85M |   0 | 277 |5841 |5924 | 153 | 21 |  19 | 117 | 6.529532e+01 | 1.500000e+01 | 335.30%| unknown
  6.8s|     1 |     0 |  6821 |     - |    85M |   0 | 277 |5841 |5927 | 156 | 23 |  19 | 117 | 6.526443e+01 | 1.500000e+01 | 335.10%| unknown
  6.8s|     1 |     0 |  6867 |     - |    85M |   0 | 277 |5842 |5931 | 160 | 24 |  20 | 117 | 6.522001e+01 | 1.500000e+01 | 334.80%| unknown
  6.9s|     1 |     0 |  6902 |     - |    85M |   0 | 277 |5843 |5935 | 164 | 25 |  21 | 117 | 6.517605e+01 | 1.500000e+01 | 334.51%| unknown
  6.9s|     1 |     0 |  6918 |     - |    85M |   0 | 277 |5843 |5936 | 165 | 26 |  21 | 117 | 6.516268e+01 | 1.500000e+01 | 334.42%| unknown
  6.9s|     1 |     0 |  6957 |     - |    85M |   0 | 277 |5844 |5914 | 167 | 27 |  22 | 117 | 6.514589e+01 | 1.500000e+01 | 334.31%| unknown
  6.9s|     1 |     0 |  6973 |     - |    85M |   0 | 277 |5845 |5917 | 170 | 28 |  23 | 117 | 6.514081e+01 | 1.500000e+01 | 334.27%| unknown
  6.9s|     1 |     0 |  7013 |     - |    85M |   0 | 277 |5845 |5921 | 174 | 29 |  23 | 117 | 6.506111e+01 | 1.500000e+01 | 333.74%| unknown
  6.9s|     1 |     0 |  7054 |     - |    85M |   0 | 277 |5846 |5925 | 178 | 30 |  24 | 117 | 6.500693e+01 | 1.500000e+01 | 333.38%| unknown
 time | node  | left  |LP iter|LP it/n|mem/heur|mdpt |vars |cons |rows |cuts |sepa|confs|strbr|  dualbound   | primalbound  |  gap   | compl. 
  6.9s|     1 |     0 |  7069 |     - |    85M |   0 | 277 |5846 |5927 | 180 | 31 |  24 | 117 | 6.500000e+01 | 1.500000e+01 | 333.33%| unknown
  6.9s|     1 |     0 |  7088 |     - |    85M |   0 | 277 |5846 |5931 | 184 | 32 |  24 | 117 | 6.499020e+01 | 1.500000e+01 | 333.27%| unknown
  6.9s|     1 |     0 |  7111 |     - |    85M |   0 | 277 |5846 |5909 | 189 | 34 |  24 | 117 | 6.495510e+01 | 1.500000e+01 | 333.03%| unknown
  7.0s|     1 |     0 |  7121 |     - |    85M |   0 | 277 |5846 |5911 | 191 | 35 |  24 | 117 | 6.495192e+01 | 1.500000e+01 | 333.01%| unknown
  7.0s|     1 |     0 |  7133 |     - |    86M |   0 | 277 |5847 |5912 | 192 | 36 |  25 | 117 | 6.494926e+01 | 1.500000e+01 | 333.00%| unknown
  7.0s|     1 |     0 |  7134 |     - |    86M |   0 | 277 |5847 |5913 | 193 | 37 |  25 | 117 | 6.494926e+01 | 1.500000e+01 | 333.00%| unknown
  7.0s|     1 |     0 |  7147 |     - |    86M |   0 | 277 |5847 |5915 | 195 | 38 |  25 | 117 | 6.494688e+01 | 1.500000e+01 | 332.98%| unknown
  7.0s|     1 |     0 |  7152 |     - |    86M |   0 | 277 |5847 |5918 | 198 | 39 |  25 | 117 | 6.494552e+01 | 1.500000e+01 | 332.97%| unknown
  7.0s|     1 |     0 |  7161 |     - |    86M |   0 | 277 |5847 |5902 | 200 | 40 |  25 | 117 | 6.494118e+01 | 1.500000e+01 | 332.94%| unknown
  7.0s|     1 |     0 |  7163 |     - |    86M |   0 | 277 |5847 |5903 | 201 | 41 |  25 | 117 | 6.494118e+01 | 1.500000e+01 | 332.94%| unknown
  7.0s|     1 |     0 |  7168 |     - |    86M |   0 | 277 |5847 |5907 | 205 | 42 |  25 | 117 | 6.494118e+01 | 1.500000e+01 | 332.94%| unknown
  7.0s|     1 |     0 |  7178 |     - |    86M |   0 | 277 |5847 |5908 | 206 | 43 |  25 | 117 | 6.493966e+01 | 1.500000e+01 | 332.93%| unknown
  7.0s|     1 |     0 |  7181 |     - |    86M |   0 | 277 |5847 |5911 | 209 | 44 |  25 | 117 | 6.493966e+01 | 1.500000e+01 | 332.93%| unknown
  7.7s|     1 |     0 |  7599 |     - |    86M |   0 | 277 |5740 |5911 | 209 | 44 |  26 | 142 | 6.375743e+01 | 1.500000e+01 | 325.05%| unknown
  7.7s|     1 |     0 |  7720 |     - |    86M |   0 | 277 |5740 |5918 | 216 | 45 |  26 | 142 | 6.375743e+01 | 1.500000e+01 | 325.05%| unknown
 time | node  | left  |LP iter|LP it/n|mem/heur|mdpt |vars |cons |rows |cuts |sepa|confs|strbr|  dualbound   | primalbound  |  gap   | compl. 
  7.8s|     1 |     0 |  7763 |     - |    86M |   0 | 277 |5740 |5923 | 221 | 46 |  26 | 142 | 6.375743e+01 | 1.500000e+01 | 325.05%| unknown
  8.4s|     1 |     2 |  7764 |     - |    86M |   0 | 277 |5741 |5923 | 221 | 46 |  27 | 163 | 6.318747e+01 | 1.500000e+01 | 321.25%| unknown
* 8.8s|     7 |     4 |  8254 | 250.9 |strongbr|   5 | 277 |5741 |5869 | 221 |  2 |  27 | 269 | 6.318747e+01 | 1.700000e+01 | 271.69%|   2.49%
* 9.3s|    18 |     7 |  8490 | 110.7 |strongbr|  10 | 277 |5741 |5889 | 241 |  6 |  27 | 390 | 6.318747e+01 | 1.900000e+01 | 232.57%|   8.66%
* 9.5s|    20 |     5 |  8627 | 106.5 |strongbr|  10 | 277 |5741 |5875 | 254 |  2 |  27 | 408 | 6.318747e+01 | 2.000000e+01 | 215.94%|  12.27%
 15.5s|   100 |    11 | 13741 |  72.4 |    96M |  16 | 277 |5741 |5897 | 350 |  0 |  27 |1126 | 5.750000e+01 | 2.000000e+01 | 187.50%|  34.13%
 18.1s|   200 |    17 | 18562 |  60.3 |    99M |  26 | 277 |5741 |5911 | 464 |  1 |  27 |1311 | 4.859167e+01 | 2.000000e+01 | 142.96%|  36.05%
 19.0s|   300 |    21 | 21440 |  49.8 |   100M |  40 | 277 |5741 |5915 | 483 |  1 |  27 |1349 | 4.625000e+01 | 2.000000e+01 | 131.25%|  37.08%
 19.7s|   400 |    23 | 23493 |  42.5 |   103M |  48 | 277 |5741 |5932 | 519 |  0 |  27 |1358 | 4.625000e+01 | 2.000000e+01 | 131.25%|  37.77%
 21.3s|   500 |    27 | 26645 |  40.3 |   110M |  55 | 277 |5741 |5960 | 668 |  1 |  27 |1362 | 4.625000e+01 | 2.000000e+01 | 131.25%|  37.77%
 21.7s|   600 |    37 | 29648 |  38.6 |   110M |  55 | 277 |5741 |5963 | 688 |  1 |  27 |1370 | 4.300000e+01 | 2.000000e+01 | 115.00%|  45.31%
 22.0s|   700 |    37 | 31472 |  35.7 |   111M |  59 | 277 |5741 |5962 | 702 |  1 |  27 |1394 | 4.300000e+01 | 2.000000e+01 | 115.00%|  45.31%
 22.4s|   800 |    35 | 33219 |  33.4 |   111M |  66 | 277 |5741 |5967 | 733 |  0 |  27 |1433 | 4.250000e+01 | 2.000000e+01 | 112.50%|  46.48%
 23.4s|   900 |    35 | 35238 |  31.9 |   113M |  73 | 277 |5741 |5927 | 814 |  0 |  27 |1456 | 4.050000e+01 | 2.000000e+01 | 102.50%|  47.46%
 24.1s|  1000 |    39 | 37403 |  30.9 |   115M |  73 | 277 |5741 |5905 | 883 |  3 |  27 |1470 | 3.716667e+01 | 2.000000e+01 |  85.83%|  52.02%
 time | node  | left  |LP iter|LP it/n|mem/heur|mdpt |vars |cons |rows |cuts |sepa|confs|strbr|  dualbound   | primalbound  |  gap   | compl. 
 24.8s|  1100 |    35 | 39255 |  29.8 |   116M |  73 | 277 |5741 |5901 | 939 |  0 |  27 |1495 | 3.716667e+01 | 2.000000e+01 |  85.83%|  52.61%
 25.4s|  1200 |    37 | 41454 |  29.1 |   117M |  73 | 277 |5741 |5902 | 987 |  0 |  27 |1500 | 3.650000e+01 | 2.000000e+01 |  82.50%|  56.04%
 26.0s|  1300 |    37 | 43171 |  28.2 |   118M |  73 | 277 |5741 |5909 |1048 |  1 |  27 |1518 | 3.650000e+01 | 2.000000e+01 |  82.50%|  58.27%
 26.3s|  1400 |    33 | 44658 |  27.3 |   118M |  73 | 277 |5741 |5974 |1080 |  0 |  27 |1551 | 3.650000e+01 | 2.000000e+01 |  82.50%|  58.27%
 27.2s|  1500 |    29 | 46777 |  26.9 |   121M |  73 | 277 |5741 |5885 |1189 |  1 |  27 |1565 | 3.650000e+01 | 2.000000e+01 |  82.50%|  58.29%
 27.9s|  1600 |    25 | 48427 |  26.2 |   122M |  73 | 277 |5741 |5880 |1235 |  1 |  27 |1581 | 3.650000e+01 | 2.000000e+01 |  82.50%|  59.18%
 28.7s|  1700 |    25 | 50353 |  25.8 |   122M |  73 | 277 |5741 |5898 |1308 |  1 |  27 |1599 | 3.650000e+01 | 2.000000e+01 |  82.50%|  60.01%
 29.2s|  1800 |    27 | 52139 |  25.4 |   123M |  73 | 277 |5741 |5901 |1342 |  1 |  27 |1603 | 3.600000e+01 | 2.000000e+01 |  80.00%|  60.38%
 29.6s|  1900 |    21 | 54024 |  25.0 |   123M |  73 | 277 |5741 |5923 |1439 |  1 |  27 |1631 | 3.600000e+01 | 2.000000e+01 |  80.00%|  60.45%
 30.4s|  2000 |    21 | 56397 |  24.9 |   123M |  73 | 277 |5741 |5931 |1556 |  1 |  27 |1653 | 3.600000e+01 | 2.000000e+01 |  80.00%|  60.47%
 31.0s|  2100 |    21 | 58275 |  24.7 |   124M |  73 | 277 |5741 |5916 |1591 |  0 |  27 |1668 | 3.304167e+01 | 2.000000e+01 |  65.21%|  62.37%
 31.3s|  2200 |    21 | 60825 |  24.7 |   124M |  73 | 277 |5741 |5936 |1700 |  1 |  27 |1677 | 3.304167e+01 | 2.000000e+01 |  65.21%|  62.42%
Restart triggered after 50 consecutive estimations that the remaining tree will be large
(run 2, node 2205) performing user restart

(restart) converted 139 cuts from the global cut pool into linear constraints

presolving:
(round 1, fast)       2 del vars, 0 del conss, 0 add conss, 0 chg bounds, 0 chg sides, 0 chg coeffs, 0 upgd conss, 0 impls, 5867 clqs
(round 2, exhaustive) 2 del vars, 0 del conss, 0 add conss, 0 chg bounds, 0 chg sides, 4 chg coeffs, 139 upgd conss, 0 impls, 5867 clqs
(round 3, medium)     3 del vars, 1 del conss, 0 add conss, 0 chg bounds, 0 chg sides, 4 chg coeffs, 139 upgd conss, 0 impls, 5873 clqs
(round 4, exhaustive) 3 del vars, 1 del conss, 0 add conss, 0 chg bounds, 0 chg sides, 23 chg coeffs, 139 upgd conss, 0 impls, 5873 clqs
(round 5, exhaustive) 3 del vars, 1 del conss, 0 add conss, 0 chg bounds, 0 chg sides, 36 chg coeffs, 139 upgd conss, 0 impls, 5879 clqs
presolving (6 rounds: 6 fast, 5 medium, 4 exhaustive):
 3 deleted vars, 2 deleted constraints, 1 added constraints, 0 tightened bounds, 0 added holes, 0 changed sides, 40 changed coefficients
 0 implications, 5891 cliques
presolved problem has 274 variables (274 bin, 0 int, 0 impl, 0 cont) and 5879 constraints
     19 constraints of type <knapsack>
   5859 constraints of type <setppc>
      1 constraints of type <orbitope>
transformed objective value is always integral (scale: 1)
Presolving Time: 0.23
transformed 85/100 original solutions to the transformed problem space

 time | node  | left  |LP iter|LP it/n|mem/heur|mdpt |vars |cons |rows |cuts |sepa|confs|strbr|  dualbound   | primalbound  |  gap   | compl. 
 31.5s|     1 |     0 | 61995 |     - |   125M |   0 | 274 |5879 |5852 |   0 |  0 |  27 |1677 | 3.304167e+01 | 2.000000e+01 |  65.21%| unknown
 31.7s|     1 |     0 | 61998 |     - |   126M |   0 | 274 |5879 |5853 |   1 |  1 |  27 |1677 | 3.304167e+01 | 2.000000e+01 |  65.21%| unknown
 32.8s|     1 |     0 | 63076 |     - |   127M |   0 | 274 |5611 |5853 |   1 |  3 |  27 |1696 | 3.304167e+01 | 2.000000e+01 |  65.21%| unknown
 32.9s|     1 |     0 | 63098 |     - |   127M |   0 | 274 |5611 |5856 |   4 |  4 |  27 |1696 | 3.304167e+01 | 2.000000e+01 |  65.21%| unknown
 32.9s|     1 |     2 | 63100 |     - |   127M |   0 | 274 |5612 |5856 |   4 |  5 |  28 |1698 | 3.304167e+01 | 2.000000e+01 |  65.21%| unknown
 35.1s|   100 |     5 | 67545 |  25.9 |   134M |  12 | 274 |5387 |5736 |  87 |  1 |  28 |2119 | 3.304167e+01 | 2.000000e+01 |  65.21%|  54.01%
 38.5s|   200 |     5 | 72588 |  26.9 |   146M |  17 | 274 |5387 |5780 | 332 |  2 |  28 |2343 | 3.304167e+01 | 2.000000e+01 |  65.21%|  63.46%
 40.6s|   300 |     3 | 77575 |  27.9 |   151M |  24 | 274 |5387 |5781 | 493 |  0 |  28 |2476 | 3.304167e+01 | 2.000000e+01 |  65.21%|  65.76%
 42.9s|   400 |     5 | 82614 |  28.7 |   153M |  25 | 274 |5164 |5779 | 678 |  1 |  28 |2604 | 3.304167e+01 | 2.000000e+01 |  65.21%|  67.04%
 44.8s|   500 |     3 | 86861 |  29.2 |   155M |  25 | 274 |5164 |5772 | 787 |  1 |  28 |2738 | 3.304167e+01 | 2.000000e+01 |  65.21%|  68.19%
 46.0s|   600 |     3 | 90556 |  29.5 |   157M |  33 | 274 |5004 |5772 | 861 |  3 |  28 |2862 | 3.304167e+01 | 2.000000e+01 |  65.21%|  68.33%
 46.7s|   700 |     3 | 94283 |  29.8 |   157M |  33 | 274 |5004 |   0 | 997 |  0 |  28 |2965 | 3.304167e+01 | 2.000000e+01 |  65.21%|  68.33%
 47.3s|   800 |     3 | 97364 |  29.8 |   157M |  38 | 274 |5004 |5791 |1063 |  0 |  28 |3038 | 3.304167e+01 | 2.000000e+01 |  65.21%|  68.33%
 47.8s|   900 |     3 |100159 |  29.8 |   158M |  40 | 274 |5004 |5786 |1136 |  1 |  28 |3080 | 3.304167e+01 | 2.000000e+01 |  65.21%|  68.33%
 49.1s|  1000 |     3 |105360 |  30.4 |   163M |  43 | 274 |5004 |5832 |1246 |  7 |  28 |3141 | 3.304167e+01 | 2.000000e+01 |  65.21%|  68.33%
 time | node  | left  |LP iter|LP it/n|mem/heur|mdpt |vars |cons |rows |cuts |sepa|confs|strbr|  dualbound   | primalbound  |  gap   | compl. 
 49.5s|  1100 |     5 |107957 |  30.3 |   164M |  63 | 274 |5004 |5825 |1261 |  1 |  28 |3171 | 3.304167e+01 | 2.000000e+01 |  65.21%|  68.33%
 50.1s|  1200 |     5 |110768 |  30.2 |   164M |  65 | 274 |5004 |   0 |1297 |  0 |  28 |3206 | 3.304167e+01 | 2.000000e+01 |  65.21%|  68.33%
 50.5s|  1300 |     9 |113596 |  30.2 |   164M |  68 | 274 |5004 |   0 |1325 |  0 |  28 |3225 | 3.121993e+01 | 2.000000e+01 |  56.10%|  71.17%
 50.9s|  1400 |     9 |116182 |  30.1 |   164M |  82 | 274 |5004 |5840 |1339 |  0 |  28 |3279 | 2.650000e+01 | 2.000000e+01 |  32.50%|  80.32%
 51.3s|  1500 |     5 |117836 |  29.7 |   164M |  88 | 274 |5004 |5827 |1373 |  0 |  28 |3301 | 2.431250e+01 | 2.000000e+01 |  21.56%|  85.77%

SCIP Status        : problem is solved [optimal solution found]
Solving Time (sec) : 51.33
Solving Nodes      : 1531 (total of 3737 nodes in 3 runs)
Primal Bound       : +2.00000000000000e+01 (234 solutions)
Dual Bound         : +2.00000000000000e+01
Gap                : 0.00 %
Solve Status: optimal
Solve Time: 51.33 seconds
